p cnf 531 1801
c p weight -211 1 0
c p weight 211 -1 0
c p weight 215 6.12323399573676603586882014729198302312846062338790031898128063403419218957424163818359375E-17 0
c p weight -215 1 0
c p weight 216 1 0
c p weight -216 1 0
c p weight -213 1 0
c p weight 213 -1 0
c p weight -217 1 0
c p weight 217 -1 0
c p weight -219 1 0
c p weight 219 -1 0
c p weight -222 1 0
c p weight 222 -1 0
c p weight -225 1 0
c p weight 225 -1 0
c p weight -228 1 0
c p weight 228 -1 0
c p weight -231 1 0
c p weight 231 -1 0
c p weight -234 1 0
c p weight 234 -1 0
c p weight -237 1 0
c p weight 237 -1 0
c p weight -240 1 0
c p weight 240 -1 0
c p weight -243 1 0
c p weight 243 -1 0
c p weight -246 1 0
c p weight 246 -1 0
c p weight -249 1 0
c p weight 249 -1 0
c p weight -252 1 0
c p weight 252 -1 0
c p weight -255 1 0
c p weight 255 -1 0
c p weight -258 1 0
c p weight 258 -1 0
c p weight -261 1 0
c p weight 261 -1 0
c p weight -264 1 0
c p weight 264 -1 0
c p weight -267 1 0
c p weight 267 -1 0
c p weight -270 1 0
c p weight 270 -1 0
c p weight -273 1 0
c p weight 273 -1 0
c p weight -276 1 0
c p weight 276 -1 0
c p weight -279 1 0
c p weight 279 -1 0
c p weight -282 1 0
c p weight 282 -1 0
c p weight -285 1 0
c p weight 285 -1 0
c p weight -288 1 0
c p weight 288 -1 0
c p weight -291 1 0
c p weight 291 -1 0
c p weight -294 1 0
c p weight 294 -1 0
c p weight -297 1 0
c p weight 297 -1 0
c p weight -300 1 0
c p weight 300 -1 0
c p weight -303 1 0
c p weight 303 -1 0
c p weight -306 1 0
c p weight 306 -1 0
c p weight -309 1 0
c p weight 309 -1 0
c p weight -312 1 0
c p weight 312 -1 0
c p weight -315 1 0
c p weight 315 -1 0
c p weight -318 1 0
c p weight 318 -1 0
c p weight -321 1 0
c p weight 321 -1 0
c p weight -324 1 0
c p weight 324 -1 0
c p weight -327 1 0
c p weight 327 -1 0
c p weight -330 1 0
c p weight 330 -1 0
c p weight -333 1 0
c p weight 333 -1 0
c p weight -336 1 0
c p weight 336 -1 0
c p weight -339 1 0
c p weight 339 -1 0
c p weight -342 1 0
c p weight 342 -1 0
c p weight -345 1 0
c p weight 345 -1 0
c p weight -348 1 0
c p weight 348 -1 0
c p weight -351 1 0
c p weight 351 -1 0
c p weight -354 1 0
c p weight 354 -1 0
c p weight -357 1 0
c p weight 357 -1 0
c p weight -360 1 0
c p weight 360 -1 0
c p weight -363 1 0
c p weight 363 -1 0
c p weight -366 1 0
c p weight 366 -1 0
c p weight -369 1 0
c p weight 369 -1 0
c p weight -372 1 0
c p weight 372 -1 0
c p weight -375 1 0
c p weight 375 -1 0
c p weight -378 1 0
c p weight 378 -1 0
c p weight -381 1 0
c p weight 381 -1 0
c p weight -384 1 0
c p weight 384 -1 0
c p weight -387 1 0
c p weight 387 -1 0
c p weight -390 1 0
c p weight 390 -1 0
c p weight -393 1 0
c p weight 393 -1 0
c p weight -396 1 0
c p weight 396 -1 0
c p weight -399 1 0
c p weight 399 -1 0
c p weight -402 1 0
c p weight 402 -1 0
c p weight -405 1 0
c p weight 405 -1 0
c p weight -408 1 0
c p weight 408 -1 0
c p weight -411 1 0
c p weight 411 -1 0
c p weight -414 1 0
c p weight 414 -1 0
c p weight -417 1 0
c p weight 417 -1 0
c p weight -420 1 0
c p weight 420 -1 0
c p weight -423 1 0
c p weight 423 -1 0
c p weight -426 1 0
c p weight 426 -1 0
c p weight -429 1 0
c p weight 429 -1 0
c p weight -432 1 0
c p weight 432 -1 0
c p weight -435 1 0
c p weight 435 -1 0
c p weight -438 1 0
c p weight 438 -1 0
c p weight -441 1 0
c p weight 441 -1 0
c p weight -444 1 0
c p weight 444 -1 0
c p weight -447 1 0
c p weight 447 -1 0
c p weight -450 1 0
c p weight 450 -1 0
c p weight -453 1 0
c p weight 453 -1 0
c p weight -456 1 0
c p weight 456 -1 0
c p weight -459 1 0
c p weight 459 -1 0
c p weight -462 1 0
c p weight 462 -1 0
c p weight -465 1 0
c p weight 465 -1 0
c p weight -468 1 0
c p weight 468 -1 0
c p weight -471 1 0
c p weight 471 -1 0
c p weight -474 1 0
c p weight 474 -1 0
c p weight -477 1 0
c p weight 477 -1 0
c p weight -480 1 0
c p weight 480 -1 0
c p weight -483 1 0
c p weight 483 -1 0
c p weight -486 1 0
c p weight 486 -1 0
c p weight -489 1 0
c p weight 489 -1 0
c p weight -492 1 0
c p weight 492 -1 0
c p weight -495 1 0
c p weight 495 -1 0
c p weight -498 1 0
c p weight 498 -1 0
c p weight -501 1 0
c p weight 501 -1 0
c p weight -504 1 0
c p weight 504 -1 0
c p weight -507 1 0
c p weight 507 -1 0
c p weight -510 1 0
c p weight 510 -1 0
c p weight -513 1 0
c p weight 513 -1 0
c p weight -516 1 0
c p weight 516 -1 0
c p weight -519 1 0
c p weight 519 -1 0
c p weight -522 1 0
c p weight 522 -1 0
c p weight -525 1 0
c p weight 525 -1 0
c p weight -528 1 0
c p weight 528 -1 0
c p weight 531 0.5 0
c p weight -531 1 0
531 0
-209 0
-207 0
-205 0
-203 0
-201 0
-199 0
-197 0
-195 0
-193 0
-191 0
-189 0
-187 0
-185 0
-183 0
-181 0
-179 0
-177 0
-175 0
-173 0
-171 0
-169 0
-167 0
-165 0
-163 0
-161 0
-159 0
-157 0
-155 0
-153 0
-151 0
-149 0
-147 0
-145 0
-143 0
-141 0
-139 0
-137 0
-135 0
-133 0
-131 0
-129 0
-127 0
-125 0
-123 0
-121 0
-119 0
-117 0
-115 0
-113 0
-111 0
-109 0
-107 0
-105 0
-103 0
-101 0
-99 0
-97 0
-95 0
-93 0
-91 0
-89 0
-87 0
-85 0
-83 0
-81 0
-79 0
-77 0
-75 0
-73 0
-71 0
-69 0
-67 0
-65 0
-63 0
-61 0
-59 0
-57 0
-55 0
-53 0
-51 0
-49 0
-47 0
-45 0
-43 0
-41 0
-39 0
-37 0
-35 0
-33 0
-31 0
-29 0
-27 0
-25 0
-23 0
-21 0
-19 0
-17 0
-15 0
-13 0
-11 0
-9 0
-7 0
-5 0
-3 0
-1 0
-211 209 0
-211 210 0
211 -209 -210 0
212 209 -210 0
212 -209 210 0
-212 209 210 0
-212 -209 -210 0
-213 214 0
-213 212 0
-213 -209 0
213 -214 209 -212 0
214 -209 212 0
-214 209 212 0
-215 212 0
214 -215 -209 0
-214 -215 209 0
214 215 209 -212 0
-214 215 -209 -212 0
-216 212 0
214 -216 209 0
-214 -216 -209 0
214 216 -209 -212 0
-214 216 209 -212 0
-217 214 0
-217 212 0
217 -214 -212 0
218 214 -212 0
218 -214 212 0
-218 214 212 0
-218 -214 -212 0
-219 214 0
-219 208 0
-219 207 -218 0
-219 -207 218 0
219 -214 207 218 -208 0
219 -214 -207 -218 -208 0
221 214 -207 0
221 -214 207 0
-221 214 207 0
-221 -214 -207 0
220 218 -208 0
220 -218 208 0
-220 218 208 0
-220 -218 -208 0
-222 221 0
-222 206 0
-222 205 -208 0
-222 -205 208 0
222 -221 205 208 -206 0
222 -221 -205 -208 -206 0
224 221 -205 0
224 -221 205 0
-224 221 205 0
-224 -221 -205 0
223 208 -206 0
223 -208 206 0
-223 208 206 0
-223 -208 -206 0
-225 224 0
-225 204 0
-225 203 -206 0
-225 -203 206 0
225 -224 203 206 -204 0
225 -224 -203 -206 -204 0
227 224 -203 0
227 -224 203 0
-227 224 203 0
-227 -224 -203 0
226 206 -204 0
226 -206 204 0
-226 206 204 0
-226 -206 -204 0
-228 227 0
-228 202 0
-228 201 -204 0
-228 -201 204 0
228 -227 201 204 -202 0
228 -227 -201 -204 -202 0
230 227 -201 0
230 -227 201 0
-230 227 201 0
-230 -227 -201 0
229 204 -202 0
229 -204 202 0
-229 204 202 0
-229 -204 -202 0
-231 230 0
-231 200 0
-231 199 -202 0
-231 -199 202 0
231 -230 199 202 -200 0
231 -230 -199 -202 -200 0
233 230 -199 0
233 -230 199 0
-233 230 199 0
-233 -230 -199 0
232 202 -200 0
232 -202 200 0
-232 202 200 0
-232 -202 -200 0
-234 233 0
-234 198 0
-234 197 -200 0
-234 -197 200 0
234 -233 197 200 -198 0
234 -233 -197 -200 -198 0
236 233 -197 0
236 -233 197 0
-236 233 197 0
-236 -233 -197 0
235 200 -198 0
235 -200 198 0
-235 200 198 0
-235 -200 -198 0
-237 236 0
-237 196 0
-237 195 -198 0
-237 -195 198 0
237 -236 195 198 -196 0
237 -236 -195 -198 -196 0
239 236 -195 0
239 -236 195 0
-239 236 195 0
-239 -236 -195 0
238 198 -196 0
238 -198 196 0
-238 198 196 0
-238 -198 -196 0
-240 239 0
-240 194 0
-240 193 -196 0
-240 -193 196 0
240 -239 193 196 -194 0
240 -239 -193 -196 -194 0
242 239 -193 0
242 -239 193 0
-242 239 193 0
-242 -239 -193 0
241 196 -194 0
241 -196 194 0
-241 196 194 0
-241 -196 -194 0
-243 242 0
-243 192 0
-243 191 -194 0
-243 -191 194 0
243 -242 191 194 -192 0
243 -242 -191 -194 -192 0
245 242 -191 0
245 -242 191 0
-245 242 191 0
-245 -242 -191 0
244 194 -192 0
244 -194 192 0
-244 194 192 0
-244 -194 -192 0
-246 245 0
-246 190 0
-246 189 -192 0
-246 -189 192 0
246 -245 189 192 -190 0
246 -245 -189 -192 -190 0
248 245 -189 0
248 -245 189 0
-248 245 189 0
-248 -245 -189 0
247 192 -190 0
247 -192 190 0
-247 192 190 0
-247 -192 -190 0
-249 248 0
-249 188 0
-249 187 -190 0
-249 -187 190 0
249 -248 187 190 -188 0
249 -248 -187 -190 -188 0
251 248 -187 0
251 -248 187 0
-251 248 187 0
-251 -248 -187 0
250 190 -188 0
250 -190 188 0
-250 190 188 0
-250 -190 -188 0
-252 251 0
-252 186 0
-252 185 -188 0
-252 -185 188 0
252 -251 185 188 -186 0
252 -251 -185 -188 -186 0
254 251 -185 0
254 -251 185 0
-254 251 185 0
-254 -251 -185 0
253 188 -186 0
253 -188 186 0
-253 188 186 0
-253 -188 -186 0
-255 254 0
-255 184 0
-255 183 -186 0
-255 -183 186 0
255 -254 183 186 -184 0
255 -254 -183 -186 -184 0
257 254 -183 0
257 -254 183 0
-257 254 183 0
-257 -254 -183 0
256 186 -184 0
256 -186 184 0
-256 186 184 0
-256 -186 -184 0
-258 257 0
-258 182 0
-258 181 -184 0
-258 -181 184 0
258 -257 181 184 -182 0
258 -257 -181 -184 -182 0
260 257 -181 0
260 -257 181 0
-260 257 181 0
-260 -257 -181 0
259 184 -182 0
259 -184 182 0
-259 184 182 0
-259 -184 -182 0
-261 260 0
-261 180 0
-261 179 -182 0
-261 -179 182 0
261 -260 179 182 -180 0
261 -260 -179 -182 -180 0
263 260 -179 0
263 -260 179 0
-263 260 179 0
-263 -260 -179 0
262 182 -180 0
262 -182 180 0
-262 182 180 0
-262 -182 -180 0
-264 263 0
-264 178 0
-264 177 -180 0
-264 -177 180 0
264 -263 177 180 -178 0
264 -263 -177 -180 -178 0
266 263 -177 0
266 -263 177 0
-266 263 177 0
-266 -263 -177 0
265 180 -178 0
265 -180 178 0
-265 180 178 0
-265 -180 -178 0
-267 266 0
-267 176 0
-267 175 -178 0
-267 -175 178 0
267 -266 175 178 -176 0
267 -266 -175 -178 -176 0
269 266 -175 0
269 -266 175 0
-269 266 175 0
-269 -266 -175 0
268 178 -176 0
268 -178 176 0
-268 178 176 0
-268 -178 -176 0
-270 269 0
-270 174 0
-270 173 -176 0
-270 -173 176 0
270 -269 173 176 -174 0
270 -269 -173 -176 -174 0
272 269 -173 0
272 -269 173 0
-272 269 173 0
-272 -269 -173 0
271 176 -174 0
271 -176 174 0
-271 176 174 0
-271 -176 -174 0
-273 272 0
-273 172 0
-273 171 -174 0
-273 -171 174 0
273 -272 171 174 -172 0
273 -272 -171 -174 -172 0
275 272 -171 0
275 -272 171 0
-275 272 171 0
-275 -272 -171 0
274 174 -172 0
274 -174 172 0
-274 174 172 0
-274 -174 -172 0
-276 275 0
-276 170 0
-276 169 -172 0
-276 -169 172 0
276 -275 169 172 -170 0
276 -275 -169 -172 -170 0
278 275 -169 0
278 -275 169 0
-278 275 169 0
-278 -275 -169 0
277 172 -170 0
277 -172 170 0
-277 172 170 0
-277 -172 -170 0
-279 278 0
-279 168 0
-279 167 -170 0
-279 -167 170 0
279 -278 167 170 -168 0
279 -278 -167 -170 -168 0
281 278 -167 0
281 -278 167 0
-281 278 167 0
-281 -278 -167 0
280 170 -168 0
280 -170 168 0
-280 170 168 0
-280 -170 -168 0
-282 281 0
-282 166 0
-282 165 -168 0
-282 -165 168 0
282 -281 165 168 -166 0
282 -281 -165 -168 -166 0
284 281 -165 0
284 -281 165 0
-284 281 165 0
-284 -281 -165 0
283 168 -166 0
283 -168 166 0
-283 168 166 0
-283 -168 -166 0
-285 284 0
-285 164 0
-285 163 -166 0
-285 -163 166 0
285 -284 163 166 -164 0
285 -284 -163 -166 -164 0
287 284 -163 0
287 -284 163 0
-287 284 163 0
-287 -284 -163 0
286 166 -164 0
286 -166 164 0
-286 166 164 0
-286 -166 -164 0
-288 287 0
-288 162 0
-288 161 -164 0
-288 -161 164 0
288 -287 161 164 -162 0
288 -287 -161 -164 -162 0
290 287 -161 0
290 -287 161 0
-290 287 161 0
-290 -287 -161 0
289 164 -162 0
289 -164 162 0
-289 164 162 0
-289 -164 -162 0
-291 290 0
-291 160 0
-291 159 -162 0
-291 -159 162 0
291 -290 159 162 -160 0
291 -290 -159 -162 -160 0
293 290 -159 0
293 -290 159 0
-293 290 159 0
-293 -290 -159 0
292 162 -160 0
292 -162 160 0
-292 162 160 0
-292 -162 -160 0
-294 293 0
-294 158 0
-294 157 -160 0
-294 -157 160 0
294 -293 157 160 -158 0
294 -293 -157 -160 -158 0
296 293 -157 0
296 -293 157 0
-296 293 157 0
-296 -293 -157 0
295 160 -158 0
295 -160 158 0
-295 160 158 0
-295 -160 -158 0
-297 296 0
-297 156 0
-297 155 -158 0
-297 -155 158 0
297 -296 155 158 -156 0
297 -296 -155 -158 -156 0
299 296 -155 0
299 -296 155 0
-299 296 155 0
-299 -296 -155 0
298 158 -156 0
298 -158 156 0
-298 158 156 0
-298 -158 -156 0
-300 299 0
-300 154 0
-300 153 -156 0
-300 -153 156 0
300 -299 153 156 -154 0
300 -299 -153 -156 -154 0
302 299 -153 0
302 -299 153 0
-302 299 153 0
-302 -299 -153 0
301 156 -154 0
301 -156 154 0
-301 156 154 0
-301 -156 -154 0
-303 302 0
-303 152 0
-303 151 -154 0
-303 -151 154 0
303 -302 151 154 -152 0
303 -302 -151 -154 -152 0
305 302 -151 0
305 -302 151 0
-305 302 151 0
-305 -302 -151 0
304 154 -152 0
304 -154 152 0
-304 154 152 0
-304 -154 -152 0
-306 305 0
-306 150 0
-306 149 -152 0
-306 -149 152 0
306 -305 149 152 -150 0
306 -305 -149 -152 -150 0
308 305 -149 0
308 -305 149 0
-308 305 149 0
-308 -305 -149 0
307 152 -150 0
307 -152 150 0
-307 152 150 0
-307 -152 -150 0
-309 308 0
-309 148 0
-309 147 -150 0
-309 -147 150 0
309 -308 147 150 -148 0
309 -308 -147 -150 -148 0
311 308 -147 0
311 -308 147 0
-311 308 147 0
-311 -308 -147 0
310 150 -148 0
310 -150 148 0
-310 150 148 0
-310 -150 -148 0
-312 311 0
-312 146 0
-312 145 -148 0
-312 -145 148 0
312 -311 145 148 -146 0
312 -311 -145 -148 -146 0
314 311 -145 0
314 -311 145 0
-314 311 145 0
-314 -311 -145 0
313 148 -146 0
313 -148 146 0
-313 148 146 0
-313 -148 -146 0
-315 314 0
-315 144 0
-315 143 -146 0
-315 -143 146 0
315 -314 143 146 -144 0
315 -314 -143 -146 -144 0
317 314 -143 0
317 -314 143 0
-317 314 143 0
-317 -314 -143 0
316 146 -144 0
316 -146 144 0
-316 146 144 0
-316 -146 -144 0
-318 317 0
-318 142 0
-318 141 -144 0
-318 -141 144 0
318 -317 141 144 -142 0
318 -317 -141 -144 -142 0
320 317 -141 0
320 -317 141 0
-320 317 141 0
-320 -317 -141 0
319 144 -142 0
319 -144 142 0
-319 144 142 0
-319 -144 -142 0
-321 320 0
-321 140 0
-321 139 -142 0
-321 -139 142 0
321 -320 139 142 -140 0
321 -320 -139 -142 -140 0
323 320 -139 0
323 -320 139 0
-323 320 139 0
-323 -320 -139 0
322 142 -140 0
322 -142 140 0
-322 142 140 0
-322 -142 -140 0
-324 323 0
-324 138 0
-324 137 -140 0
-324 -137 140 0
324 -323 137 140 -138 0
324 -323 -137 -140 -138 0
326 323 -137 0
326 -323 137 0
-326 323 137 0
-326 -323 -137 0
325 140 -138 0
325 -140 138 0
-325 140 138 0
-325 -140 -138 0
-327 326 0
-327 136 0
-327 135 -138 0
-327 -135 138 0
327 -326 135 138 -136 0
327 -326 -135 -138 -136 0
329 326 -135 0
329 -326 135 0
-329 326 135 0
-329 -326 -135 0
328 138 -136 0
328 -138 136 0
-328 138 136 0
-328 -138 -136 0
-330 329 0
-330 134 0
-330 133 -136 0
-330 -133 136 0
330 -329 133 136 -134 0
330 -329 -133 -136 -134 0
332 329 -133 0
332 -329 133 0
-332 329 133 0
-332 -329 -133 0
331 136 -134 0
331 -136 134 0
-331 136 134 0
-331 -136 -134 0
-333 332 0
-333 132 0
-333 131 -134 0
-333 -131 134 0
333 -332 131 134 -132 0
333 -332 -131 -134 -132 0
335 332 -131 0
335 -332 131 0
-335 332 131 0
-335 -332 -131 0
334 134 -132 0
334 -134 132 0
-334 134 132 0
-334 -134 -132 0
-336 335 0
-336 130 0
-336 129 -132 0
-336 -129 132 0
336 -335 129 132 -130 0
336 -335 -129 -132 -130 0
338 335 -129 0
338 -335 129 0
-338 335 129 0
-338 -335 -129 0
337 132 -130 0
337 -132 130 0
-337 132 130 0
-337 -132 -130 0
-339 338 0
-339 128 0
-339 127 -130 0
-339 -127 130 0
339 -338 127 130 -128 0
339 -338 -127 -130 -128 0
341 338 -127 0
341 -338 127 0
-341 338 127 0
-341 -338 -127 0
340 130 -128 0
340 -130 128 0
-340 130 128 0
-340 -130 -128 0
-342 341 0
-342 126 0
-342 125 -128 0
-342 -125 128 0
342 -341 125 128 -126 0
342 -341 -125 -128 -126 0
344 341 -125 0
344 -341 125 0
-344 341 125 0
-344 -341 -125 0
343 128 -126 0
343 -128 126 0
-343 128 126 0
-343 -128 -126 0
-345 344 0
-345 124 0
-345 123 -126 0
-345 -123 126 0
345 -344 123 126 -124 0
345 -344 -123 -126 -124 0
347 344 -123 0
347 -344 123 0
-347 344 123 0
-347 -344 -123 0
346 126 -124 0
346 -126 124 0
-346 126 124 0
-346 -126 -124 0
-348 347 0
-348 122 0
-348 121 -124 0
-348 -121 124 0
348 -347 121 124 -122 0
348 -347 -121 -124 -122 0
350 347 -121 0
350 -347 121 0
-350 347 121 0
-350 -347 -121 0
349 124 -122 0
349 -124 122 0
-349 124 122 0
-349 -124 -122 0
-351 350 0
-351 120 0
-351 119 -122 0
-351 -119 122 0
351 -350 119 122 -120 0
351 -350 -119 -122 -120 0
353 350 -119 0
353 -350 119 0
-353 350 119 0
-353 -350 -119 0
352 122 -120 0
352 -122 120 0
-352 122 120 0
-352 -122 -120 0
-354 353 0
-354 118 0
-354 117 -120 0
-354 -117 120 0
354 -353 117 120 -118 0
354 -353 -117 -120 -118 0
356 353 -117 0
356 -353 117 0
-356 353 117 0
-356 -353 -117 0
355 120 -118 0
355 -120 118 0
-355 120 118 0
-355 -120 -118 0
-357 356 0
-357 116 0
-357 115 -118 0
-357 -115 118 0
357 -356 115 118 -116 0
357 -356 -115 -118 -116 0
359 356 -115 0
359 -356 115 0
-359 356 115 0
-359 -356 -115 0
358 118 -116 0
358 -118 116 0
-358 118 116 0
-358 -118 -116 0
-360 359 0
-360 114 0
-360 113 -116 0
-360 -113 116 0
360 -359 113 116 -114 0
360 -359 -113 -116 -114 0
362 359 -113 0
362 -359 113 0
-362 359 113 0
-362 -359 -113 0
361 116 -114 0
361 -116 114 0
-361 116 114 0
-361 -116 -114 0
-363 362 0
-363 112 0
-363 111 -114 0
-363 -111 114 0
363 -362 111 114 -112 0
363 -362 -111 -114 -112 0
365 362 -111 0
365 -362 111 0
-365 362 111 0
-365 -362 -111 0
364 114 -112 0
364 -114 112 0
-364 114 112 0
-364 -114 -112 0
-366 365 0
-366 110 0
-366 109 -112 0
-366 -109 112 0
366 -365 109 112 -110 0
366 -365 -109 -112 -110 0
368 365 -109 0
368 -365 109 0
-368 365 109 0
-368 -365 -109 0
367 112 -110 0
367 -112 110 0
-367 112 110 0
-367 -112 -110 0
-369 368 0
-369 108 0
-369 107 -110 0
-369 -107 110 0
369 -368 107 110 -108 0
369 -368 -107 -110 -108 0
371 368 -107 0
371 -368 107 0
-371 368 107 0
-371 -368 -107 0
370 110 -108 0
370 -110 108 0
-370 110 108 0
-370 -110 -108 0
-372 371 0
-372 106 0
-372 105 -108 0
-372 -105 108 0
372 -371 105 108 -106 0
372 -371 -105 -108 -106 0
374 371 -105 0
374 -371 105 0
-374 371 105 0
-374 -371 -105 0
373 108 -106 0
373 -108 106 0
-373 108 106 0
-373 -108 -106 0
-375 374 0
-375 104 0
-375 103 -106 0
-375 -103 106 0
375 -374 103 106 -104 0
375 -374 -103 -106 -104 0
377 374 -103 0
377 -374 103 0
-377 374 103 0
-377 -374 -103 0
376 106 -104 0
376 -106 104 0
-376 106 104 0
-376 -106 -104 0
-378 377 0
-378 102 0
-378 101 -104 0
-378 -101 104 0
378 -377 101 104 -102 0
378 -377 -101 -104 -102 0
380 377 -101 0
380 -377 101 0
-380 377 101 0
-380 -377 -101 0
379 104 -102 0
379 -104 102 0
-379 104 102 0
-379 -104 -102 0
-381 380 0
-381 100 0
-381 99 -102 0
-381 -99 102 0
381 -380 99 102 -100 0
381 -380 -99 -102 -100 0
383 380 -99 0
383 -380 99 0
-383 380 99 0
-383 -380 -99 0
382 102 -100 0
382 -102 100 0
-382 102 100 0
-382 -102 -100 0
-384 383 0
-384 98 0
-384 97 -100 0
-384 -97 100 0
384 -383 97 100 -98 0
384 -383 -97 -100 -98 0
386 383 -97 0
386 -383 97 0
-386 383 97 0
-386 -383 -97 0
385 100 -98 0
385 -100 98 0
-385 100 98 0
-385 -100 -98 0
-387 386 0
-387 96 0
-387 95 -98 0
-387 -95 98 0
387 -386 95 98 -96 0
387 -386 -95 -98 -96 0
389 386 -95 0
389 -386 95 0
-389 386 95 0
-389 -386 -95 0
388 98 -96 0
388 -98 96 0
-388 98 96 0
-388 -98 -96 0
-390 389 0
-390 94 0
-390 93 -96 0
-390 -93 96 0
390 -389 93 96 -94 0
390 -389 -93 -96 -94 0
392 389 -93 0
392 -389 93 0
-392 389 93 0
-392 -389 -93 0
391 96 -94 0
391 -96 94 0
-391 96 94 0
-391 -96 -94 0
-393 392 0
-393 92 0
-393 91 -94 0
-393 -91 94 0
393 -392 91 94 -92 0
393 -392 -91 -94 -92 0
395 392 -91 0
395 -392 91 0
-395 392 91 0
-395 -392 -91 0
394 94 -92 0
394 -94 92 0
-394 94 92 0
-394 -94 -92 0
-396 395 0
-396 90 0
-396 89 -92 0
-396 -89 92 0
396 -395 89 92 -90 0
396 -395 -89 -92 -90 0
398 395 -89 0
398 -395 89 0
-398 395 89 0
-398 -395 -89 0
397 92 -90 0
397 -92 90 0
-397 92 90 0
-397 -92 -90 0
-399 398 0
-399 88 0
-399 87 -90 0
-399 -87 90 0
399 -398 87 90 -88 0
399 -398 -87 -90 -88 0
401 398 -87 0
401 -398 87 0
-401 398 87 0
-401 -398 -87 0
400 90 -88 0
400 -90 88 0
-400 90 88 0
-400 -90 -88 0
-402 401 0
-402 86 0
-402 85 -88 0
-402 -85 88 0
402 -401 85 88 -86 0
402 -401 -85 -88 -86 0
404 401 -85 0
404 -401 85 0
-404 401 85 0
-404 -401 -85 0
403 88 -86 0
403 -88 86 0
-403 88 86 0
-403 -88 -86 0
-405 404 0
-405 84 0
-405 83 -86 0
-405 -83 86 0
405 -404 83 86 -84 0
405 -404 -83 -86 -84 0
407 404 -83 0
407 -404 83 0
-407 404 83 0
-407 -404 -83 0
406 86 -84 0
406 -86 84 0
-406 86 84 0
-406 -86 -84 0
-408 407 0
-408 82 0
-408 81 -84 0
-408 -81 84 0
408 -407 81 84 -82 0
408 -407 -81 -84 -82 0
410 407 -81 0
410 -407 81 0
-410 407 81 0
-410 -407 -81 0
409 84 -82 0
409 -84 82 0
-409 84 82 0
-409 -84 -82 0
-411 410 0
-411 80 0
-411 79 -82 0
-411 -79 82 0
411 -410 79 82 -80 0
411 -410 -79 -82 -80 0
413 410 -79 0
413 -410 79 0
-413 410 79 0
-413 -410 -79 0
412 82 -80 0
412 -82 80 0
-412 82 80 0
-412 -82 -80 0
-414 413 0
-414 78 0
-414 77 -80 0
-414 -77 80 0
414 -413 77 80 -78 0
414 -413 -77 -80 -78 0
416 413 -77 0
416 -413 77 0
-416 413 77 0
-416 -413 -77 0
415 80 -78 0
415 -80 78 0
-415 80 78 0
-415 -80 -78 0
-417 416 0
-417 76 0
-417 75 -78 0
-417 -75 78 0
417 -416 75 78 -76 0
417 -416 -75 -78 -76 0
419 416 -75 0
419 -416 75 0
-419 416 75 0
-419 -416 -75 0
418 78 -76 0
418 -78 76 0
-418 78 76 0
-418 -78 -76 0
-420 419 0
-420 74 0
-420 73 -76 0
-420 -73 76 0
420 -419 73 76 -74 0
420 -419 -73 -76 -74 0
422 419 -73 0
422 -419 73 0
-422 419 73 0
-422 -419 -73 0
421 76 -74 0
421 -76 74 0
-421 76 74 0
-421 -76 -74 0
-423 422 0
-423 72 0
-423 71 -74 0
-423 -71 74 0
423 -422 71 74 -72 0
423 -422 -71 -74 -72 0
425 422 -71 0
425 -422 71 0
-425 422 71 0
-425 -422 -71 0
424 74 -72 0
424 -74 72 0
-424 74 72 0
-424 -74 -72 0
-426 425 0
-426 70 0
-426 69 -72 0
-426 -69 72 0
426 -425 69 72 -70 0
426 -425 -69 -72 -70 0
428 425 -69 0
428 -425 69 0
-428 425 69 0
-428 -425 -69 0
427 72 -70 0
427 -72 70 0
-427 72 70 0
-427 -72 -70 0
-429 428 0
-429 68 0
-429 67 -70 0
-429 -67 70 0
429 -428 67 70 -68 0
429 -428 -67 -70 -68 0
431 428 -67 0
431 -428 67 0
-431 428 67 0
-431 -428 -67 0
430 70 -68 0
430 -70 68 0
-430 70 68 0
-430 -70 -68 0
-432 431 0
-432 66 0
-432 65 -68 0
-432 -65 68 0
432 -431 65 68 -66 0
432 -431 -65 -68 -66 0
434 431 -65 0
434 -431 65 0
-434 431 65 0
-434 -431 -65 0
433 68 -66 0
433 -68 66 0
-433 68 66 0
-433 -68 -66 0
-435 434 0
-435 64 0
-435 63 -66 0
-435 -63 66 0
435 -434 63 66 -64 0
435 -434 -63 -66 -64 0
437 434 -63 0
437 -434 63 0
-437 434 63 0
-437 -434 -63 0
436 66 -64 0
436 -66 64 0
-436 66 64 0
-436 -66 -64 0
-438 437 0
-438 62 0
-438 61 -64 0
-438 -61 64 0
438 -437 61 64 -62 0
438 -437 -61 -64 -62 0
440 437 -61 0
440 -437 61 0
-440 437 61 0
-440 -437 -61 0
439 64 -62 0
439 -64 62 0
-439 64 62 0
-439 -64 -62 0
-441 440 0
-441 60 0
-441 59 -62 0
-441 -59 62 0
441 -440 59 62 -60 0
441 -440 -59 -62 -60 0
443 440 -59 0
443 -440 59 0
-443 440 59 0
-443 -440 -59 0
442 62 -60 0
442 -62 60 0
-442 62 60 0
-442 -62 -60 0
-444 443 0
-444 58 0
-444 57 -60 0
-444 -57 60 0
444 -443 57 60 -58 0
444 -443 -57 -60 -58 0
446 443 -57 0
446 -443 57 0
-446 443 57 0
-446 -443 -57 0
445 60 -58 0
445 -60 58 0
-445 60 58 0
-445 -60 -58 0
-447 446 0
-447 56 0
-447 55 -58 0
-447 -55 58 0
447 -446 55 58 -56 0
447 -446 -55 -58 -56 0
449 446 -55 0
449 -446 55 0
-449 446 55 0
-449 -446 -55 0
448 58 -56 0
448 -58 56 0
-448 58 56 0
-448 -58 -56 0
-450 449 0
-450 54 0
-450 53 -56 0
-450 -53 56 0
450 -449 53 56 -54 0
450 -449 -53 -56 -54 0
452 449 -53 0
452 -449 53 0
-452 449 53 0
-452 -449 -53 0
451 56 -54 0
451 -56 54 0
-451 56 54 0
-451 -56 -54 0
-453 452 0
-453 52 0
-453 51 -54 0
-453 -51 54 0
453 -452 51 54 -52 0
453 -452 -51 -54 -52 0
455 452 -51 0
455 -452 51 0
-455 452 51 0
-455 -452 -51 0
454 54 -52 0
454 -54 52 0
-454 54 52 0
-454 -54 -52 0
-456 455 0
-456 50 0
-456 49 -52 0
-456 -49 52 0
456 -455 49 52 -50 0
456 -455 -49 -52 -50 0
458 455 -49 0
458 -455 49 0
-458 455 49 0
-458 -455 -49 0
457 52 -50 0
457 -52 50 0
-457 52 50 0
-457 -52 -50 0
-459 458 0
-459 48 0
-459 47 -50 0
-459 -47 50 0
459 -458 47 50 -48 0
459 -458 -47 -50 -48 0
461 458 -47 0
461 -458 47 0
-461 458 47 0
-461 -458 -47 0
460 50 -48 0
460 -50 48 0
-460 50 48 0
-460 -50 -48 0
-462 461 0
-462 46 0
-462 45 -48 0
-462 -45 48 0
462 -461 45 48 -46 0
462 -461 -45 -48 -46 0
464 461 -45 0
464 -461 45 0
-464 461 45 0
-464 -461 -45 0
463 48 -46 0
463 -48 46 0
-463 48 46 0
-463 -48 -46 0
-465 464 0
-465 44 0
-465 43 -46 0
-465 -43 46 0
465 -464 43 46 -44 0
465 -464 -43 -46 -44 0
467 464 -43 0
467 -464 43 0
-467 464 43 0
-467 -464 -43 0
466 46 -44 0
466 -46 44 0
-466 46 44 0
-466 -46 -44 0
-468 467 0
-468 42 0
-468 41 -44 0
-468 -41 44 0
468 -467 41 44 -42 0
468 -467 -41 -44 -42 0
470 467 -41 0
470 -467 41 0
-470 467 41 0
-470 -467 -41 0
469 44 -42 0
469 -44 42 0
-469 44 42 0
-469 -44 -42 0
-471 470 0
-471 40 0
-471 39 -42 0
-471 -39 42 0
471 -470 39 42 -40 0
471 -470 -39 -42 -40 0
473 470 -39 0
473 -470 39 0
-473 470 39 0
-473 -470 -39 0
472 42 -40 0
472 -42 40 0
-472 42 40 0
-472 -42 -40 0
-474 473 0
-474 38 0
-474 37 -40 0
-474 -37 40 0
474 -473 37 40 -38 0
474 -473 -37 -40 -38 0
476 473 -37 0
476 -473 37 0
-476 473 37 0
-476 -473 -37 0
475 40 -38 0
475 -40 38 0
-475 40 38 0
-475 -40 -38 0
-477 476 0
-477 36 0
-477 35 -38 0
-477 -35 38 0
477 -476 35 38 -36 0
477 -476 -35 -38 -36 0
479 476 -35 0
479 -476 35 0
-479 476 35 0
-479 -476 -35 0
478 38 -36 0
478 -38 36 0
-478 38 36 0
-478 -38 -36 0
-480 479 0
-480 34 0
-480 33 -36 0
-480 -33 36 0
480 -479 33 36 -34 0
480 -479 -33 -36 -34 0
482 479 -33 0
482 -479 33 0
-482 479 33 0
-482 -479 -33 0
481 36 -34 0
481 -36 34 0
-481 36 34 0
-481 -36 -34 0
-483 482 0
-483 32 0
-483 31 -34 0
-483 -31 34 0
483 -482 31 34 -32 0
483 -482 -31 -34 -32 0
485 482 -31 0
485 -482 31 0
-485 482 31 0
-485 -482 -31 0
484 34 -32 0
484 -34 32 0
-484 34 32 0
-484 -34 -32 0
-486 485 0
-486 30 0
-486 29 -32 0
-486 -29 32 0
486 -485 29 32 -30 0
486 -485 -29 -32 -30 0
488 485 -29 0
488 -485 29 0
-488 485 29 0
-488 -485 -29 0
487 32 -30 0
487 -32 30 0
-487 32 30 0
-487 -32 -30 0
-489 488 0
-489 28 0
-489 27 -30 0
-489 -27 30 0
489 -488 27 30 -28 0
489 -488 -27 -30 -28 0
491 488 -27 0
491 -488 27 0
-491 488 27 0
-491 -488 -27 0
490 30 -28 0
490 -30 28 0
-490 30 28 0
-490 -30 -28 0
-492 491 0
-492 26 0
-492 25 -28 0
-492 -25 28 0
492 -491 25 28 -26 0
492 -491 -25 -28 -26 0
494 491 -25 0
494 -491 25 0
-494 491 25 0
-494 -491 -25 0
493 28 -26 0
493 -28 26 0
-493 28 26 0
-493 -28 -26 0
-495 494 0
-495 24 0
-495 23 -26 0
-495 -23 26 0
495 -494 23 26 -24 0
495 -494 -23 -26 -24 0
497 494 -23 0
497 -494 23 0
-497 494 23 0
-497 -494 -23 0
496 26 -24 0
496 -26 24 0
-496 26 24 0
-496 -26 -24 0
-498 497 0
-498 22 0
-498 21 -24 0
-498 -21 24 0
498 -497 21 24 -22 0
498 -497 -21 -24 -22 0
500 497 -21 0
500 -497 21 0
-500 497 21 0
-500 -497 -21 0
499 24 -22 0
499 -24 22 0
-499 24 22 0
-499 -24 -22 0
-501 500 0
-501 20 0
-501 19 -22 0
-501 -19 22 0
501 -500 19 22 -20 0
501 -500 -19 -22 -20 0
503 500 -19 0
503 -500 19 0
-503 500 19 0
-503 -500 -19 0
502 22 -20 0
502 -22 20 0
-502 22 20 0
-502 -22 -20 0
-504 503 0
-504 18 0
-504 17 -20 0
-504 -17 20 0
504 -503 17 20 -18 0
504 -503 -17 -20 -18 0
506 503 -17 0
506 -503 17 0
-506 503 17 0
-506 -503 -17 0
505 20 -18 0
505 -20 18 0
-505 20 18 0
-505 -20 -18 0
-507 506 0
-507 16 0
-507 15 -18 0
-507 -15 18 0
507 -506 15 18 -16 0
507 -506 -15 -18 -16 0
509 506 -15 0
509 -506 15 0
-509 506 15 0
-509 -506 -15 0
508 18 -16 0
508 -18 16 0
-508 18 16 0
-508 -18 -16 0
-510 509 0
-510 14 0
-510 13 -16 0
-510 -13 16 0
510 -509 13 16 -14 0
510 -509 -13 -16 -14 0
512 509 -13 0
512 -509 13 0
-512 509 13 0
-512 -509 -13 0
511 16 -14 0
511 -16 14 0
-511 16 14 0
-511 -16 -14 0
-513 512 0
-513 12 0
-513 11 -14 0
-513 -11 14 0
513 -512 11 14 -12 0
513 -512 -11 -14 -12 0
515 512 -11 0
515 -512 11 0
-515 512 11 0
-515 -512 -11 0
514 14 -12 0
514 -14 12 0
-514 14 12 0
-514 -14 -12 0
-516 515 0
-516 10 0
-516 9 -12 0
-516 -9 12 0
516 -515 9 12 -10 0
516 -515 -9 -12 -10 0
518 515 -9 0
518 -515 9 0
-518 515 9 0
-518 -515 -9 0
517 12 -10 0
517 -12 10 0
-517 12 10 0
-517 -12 -10 0
-519 518 0
-519 8 0
-519 7 -10 0
-519 -7 10 0
519 -518 7 10 -8 0
519 -518 -7 -10 -8 0
521 518 -7 0
521 -518 7 0
-521 518 7 0
-521 -518 -7 0
520 10 -8 0
520 -10 8 0
-520 10 8 0
-520 -10 -8 0
-522 521 0
-522 6 0
-522 5 -8 0
-522 -5 8 0
522 -521 5 8 -6 0
522 -521 -5 -8 -6 0
524 521 -5 0
524 -521 5 0
-524 521 5 0
-524 -521 -5 0
523 8 -6 0
523 -8 6 0
-523 8 6 0
-523 -8 -6 0
-525 524 0
-525 4 0
-525 3 -6 0
-525 -3 6 0
525 -524 3 6 -4 0
525 -524 -3 -6 -4 0
527 524 -3 0
527 -524 3 0
-527 524 3 0
-527 -524 -3 0
526 6 -4 0
526 -6 4 0
-526 6 4 0
-526 -6 -4 0
-528 527 0
-528 2 0
-528 1 -4 0
-528 -1 4 0
528 -527 1 4 -2 0
528 -527 -1 -4 -2 0
530 527 -1 0
530 -527 1 0
-530 527 1 0
-530 -527 -1 0
529 4 -2 0
529 -4 2 0
-529 4 2 0
-529 -4 -2 0
-530 0
-527 0
-529 0
-524 0
-526 0
-521 0
-523 0
-518 0
-520 0
-515 0
-517 0
-512 0
-514 0
-509 0
-511 0
-506 0
-508 0
-503 0
-505 0
-500 0
-502 0
-497 0
-499 0
-494 0
-496 0
-491 0
-493 0
-488 0
-490 0
-485 0
-487 0
-482 0
-484 0
-479 0
-481 0
-476 0
-478 0
-473 0
-475 0
-470 0
-472 0
-467 0
-469 0
-464 0
-466 0
-461 0
-463 0
-458 0
-460 0
-455 0
-457 0
-452 0
-454 0
-449 0
-451 0
-446 0
-448 0
-443 0
-445 0
-440 0
-442 0
-437 0
-439 0
-434 0
-436 0
-431 0
-433 0
-428 0
-430 0
-425 0
-427 0
-422 0
-424 0
-419 0
-421 0
-416 0
-418 0
-413 0
-415 0
-410 0
-412 0
-407 0
-409 0
-404 0
-406 0
-401 0
-403 0
-398 0
-400 0
-395 0
-397 0
-392 0
-394 0
-389 0
-391 0
-386 0
-388 0
-383 0
-385 0
-380 0
-382 0
-377 0
-379 0
-374 0
-376 0
-371 0
-373 0
-368 0
-370 0
-365 0
-367 0
-362 0
-364 0
-359 0
-361 0
-356 0
-358 0
-353 0
-355 0
-350 0
-352 0
-347 0
-349 0
-344 0
-346 0
-341 0
-343 0
-338 0
-340 0
-335 0
-337 0
-332 0
-334 0
-329 0
-331 0
-326 0
-328 0
-323 0
-325 0
-320 0
-322 0
-317 0
-319 0
-314 0
-316 0
-311 0
-313 0
-308 0
-310 0
-305 0
-307 0
-302 0
-304 0
-299 0
-301 0
-296 0
-298 0
-293 0
-295 0
-290 0
-292 0
-287 0
-289 0
-284 0
-286 0
-281 0
-283 0
-278 0
-280 0
-275 0
-277 0
-272 0
-274 0
-269 0
-271 0
-266 0
-268 0
-263 0
-265 0
-260 0
-262 0
-257 0
-259 0
-254 0
-256 0
-251 0
-253 0
-248 0
-250 0
-245 0
-247 0
-242 0
-244 0
-239 0
-241 0
-236 0
-238 0
-233 0
-235 0
-230 0
-232 0
-227 0
-229 0
-224 0
-226 0
-221 0
-223 0
-214 0
-220 0
